Route 1: 18 8 7 47 48

Route 2: 27 3 9 34 35

Route 3: 42 15 40 21 13

Route 4: 1 4

Route 5: 36 11 19 49 31 32

Route 6: 29 24 22 2 28

Route 7: 14 44 38 37

Route 8: 45 5 16 6 17 26

Route 9: 33 50 30 20 10 46

Route 10: 12 39 23 41 43 25

Vehicles: 10

Distance: 1150.11

